data/CVRPLIB/Vrp-Set-XML100/instances/XML100_3212_22.vrp
NAME : XML100_3212_22
COMMENT : Generated by Queiroga, Sadykov, Uchoa, and Vidal (2021)
TYPE : CVRP
DIMENSION : 101
EDGE_WEIGHT_TYPE : EUC_2D
CAPACITY : 6
NODE_COORD_SECTION
1    0    0   
2    669  102 
3    510  812 
4    540  827 
5    586  919 
6    853  812 
7    197  34  
8    458  833 
9    885  815 
10   767  858 
11   69   240 
12   545  945 
13   155  81  
14   405  248 
15   620  948 
16   728  700 
17   23   28  
18   847  767 
19   797  183 
20   852  658 
21   809  750 
22   61   280 
23   593  928 
24   678  98  
25   739  130 
26   64   79  
27   875  732 
28   84   156 
29   27   292 
30   789  107 
31   851  564 
32   582  942 
33   853  116 
34   105  99  
35   538  888 
36   988  285 
37   710  127 
38   828  220 
39   216  37  
40   913  866 
41   865  51  
42   586  961 
43   839  828 
44   6    221 
45   195  235 
46   554  981 
47   261  2   
48   807  265 
49   6    196 
50   213  85  
51   643  63  
52   636  79  
53   227  185 
54   768  181 
55   843  715 
56   570  920 
57   656  131 
58   584  970 
59   152  312 
60   832  229 
61   774  760 
62   522  865 
63   82   223 
64   728  107 
65   218  125 
66   862  173 
67   465  998 
68   809  765 
69   597  945 
70   766  156 
71   584  623 
72   872  791 
73   776  140 
74   934  675 
75   151  85  
76   190  37  
77   510  909 
78   672  385 
79   786  150 
80   176  67  
81   779  156 
82   538  936 
83   174  61  
84   819  838 
85   652  203 
86   57   217 
87   710  766 
88   427  33  
89   757  582 
90   693  186 
91   793  95  
92   17   221 
93   745  822 
94   123  91  
95   805  99  
96   257  53  
97   902  199 
98   245  41  
99   801  103 
100  486  858 
101  81   164 
DEMAND_SECTION
1    0   
2    1   
3    1   
4    1   
5    1   
6    1   
7    1   
8    1   
9    1   
10   1   
11   1   
12   1   
13   1   
14   1   
15   1   
16   1   
17   1   
18   1   
19   1   
20   1   
21   1   
22   1   
23   1   
24   1   
25   1   
26   1   
27   1   
28   1   
29   1   
30   1   
31   1   
32   1   
33   1   
34   1   
35   1   
36   1   
37   1   
38   1   
39   1   
40   1   
41   1   
42   1   
43   1   
44   1   
45   1   
46   1   
47   1   
48   1   
49   1   
50   1   
51   1   
52   1   
53   1   
54   1   
55   1   
56   1   
57   1   
58   1   
59   1   
60   1   
61   1   
62   1   
63   1   
64   1   
65   1   
66   1   
67   1   
68   1   
69   1   
70   1   
71   1   
72   1   
73   1   
74   1   
75   1   
76   1   
77   1   
78   1   
79   1   
80   1   
81   1   
82   1   
83   1   
84   1   
85   1   
86   1   
87   1   
88   1   
89   1   
90   1   
91   1   
92   1   
93   1   
94   1   
95   1   
96   1   
97   1   
98   1   
99   1   
100  1   
101  1   
DEPOT_SECTION
1
-1
EOF
