data/CVRPLIB/Vrp-Set-XML100/solutions/XML100_3212_22.sol
Route #1: 40 32 65 96 35 47
Route #2: 82 79 12 74 93 33
Route #3: 2 61 34 76 99 7
Route #4: 4 22 14 68 31 55
Route #5: 70 86 60 67 20 15
Route #6: 81 11 41 57 45 66
Route #7: 24 72 78 80 69 56
Route #8: 49 95 97 38 6 75
Route #9: 3 92 9 83 42 5
Route #10: 64 52 44 58 21 28
Route #11: 16 25 27 100
Route #12: 13 77 30 73 19 88
Route #13: 63 90 94 98 29 36
Route #14: 62 10 85 91 43 48
Route #15: 51 1 23 50 87 46
Route #16: 17 71 8 39 26 54
Route #17: 89 53 18 37 59 84
Cost 27761
